Maximize

var_0_0 + var_0_1 + var_1_0 + var_1_1 + var_2_0 + var_2_1 + var_3_0 + var_3_1 + var_4_0 + var_4_1


Subject To

a0: var_0_0 + var_0_1 <= 1
a1: var_1_0 + var_1_1 <= 1
a2: var_2_0 + var_2_1 <= 1
a3: var_3_0 + var_3_1 <= 1
a4: var_4_0 + var_4_1 <= 1
b0: var_0_0 + var_2_0 <= 1
b1: var_0_1 + var_2_1 <= 1
b2: var_0_0 + var_3_0 <= 1
b3: var_0_1 + var_3_1 <= 1
b4: var_0_0 + var_4_0 <= 1
b5: var_0_1 + var_4_1 <= 1
b6: var_1_0 + var_2_0 <= 1
b7: var_1_1 + var_2_1 <= 1
b8: var_1_0 + var_4_0 <= 1
b9: var_1_1 + var_4_1 <= 1
b10: var_2_0 + var_0_0 <= 1
b11: var_2_1 + var_0_1 <= 1
b12: var_2_0 + var_1_0 <= 1
b13: var_2_1 + var_1_1 <= 1
b14: var_2_0 + var_4_0 <= 1
b15: var_2_1 + var_4_1 <= 1
b16: var_3_0 + var_0_0 <= 1
b17: var_3_1 + var_0_1 <= 1
b18: var_3_0 + var_4_0 <= 1
b19: var_3_1 + var_4_1 <= 1
b20: var_4_0 + var_0_0 <= 1
b21: var_4_1 + var_0_1 <= 1
b22: var_4_0 + var_1_0 <= 1
b23: var_4_1 + var_1_1 <= 1
b24: var_4_0 + var_2_0 <= 1
b25: var_4_1 + var_2_1 <= 1
b26: var_4_0 + var_3_0 <= 1
b27: var_4_1 + var_3_1 <= 1
c0: 2 var_0_0 + 4 var_1_0 + 3 var_2_0 + 1 var_3_0 + 6 var_4_0 <= 4
c1: 2 var_0_1 + 4 var_1_1 + 3 var_2_1 + 1 var_3_1 + 6 var_4_1 <= 6




Binary

var_0_0 var_0_1 var_1_0 var_1_1 var_2_0 var_2_1 var_3_0 var_3_1 var_4_0 var_4_1

 


End
